************************************************************************
file with basedata            : md353_.bas
initial value random generator: 120017011
************************************************************************
projects                      :  1
jobs (incl. supersource/sink ):  22
horizon                       :  149
RESOURCES
  - renewable                 :  2   R
  - nonrenewable              :  2   N
  - doubly constrained        :  0   D
************************************************************************
PROJECT INFORMATION:
pronr.  #jobs rel.date duedate tardcost  MPM-Time
    1     20      0       17        5       17
************************************************************************
PRECEDENCE RELATIONS:
jobnr.    #modes  #successors   successors
   1        1          3           2   3   4
   2        3          3           5   6  15
   3        3          3           7   8  20
   4        3          3           7  12  16
   5        3          3           8  11  17
   6        3          3          10  13  21
   7        3          1          17
   8        3          1           9
   9        3          1          19
  10        3          3          12  14  19
  11        3          3          12  16  21
  12        3          1          20
  13        3          3          14  16  17
  14        3          1          20
  15        3          2          18  21
  16        3          1          18
  17        3          1          18
  18        3          1          19
  19        3          1          22
  20        3          1          22
  21        3          1          22
  22        1          0        
************************************************************************
REQUESTS/DURATIONS:
jobnr. mode duration  R 1  R 2  N 1  N 2
------------------------------------------------------------------------
  1      1     0       0    0    0    0
  2      1     2       0    9    4    9
         2     3       6    0    4    9
         3     6       6    0    3    7
  3      1     1       2    0    6    8
         2     4       2    0    4    6
         3     5       0    7    2    4
  4      1     1      10    0    6    9
         2     3       0    3    4    8
         3    10       9    0    1    8
  5      1     2       7    0    3    7
         2     6       0    5    3    7
         3     8       7    0    2    7
  6      1     1       0    7    2    6
         2     1       8    0    2    5
         3     9       0    7    1    4
  7      1     3       8    0    7    8
         2     3       0    8    7   10
         3     4       0    5    7    3
  8      1     1       0    2    6    5
         2     6       0    1    6    3
         3     9       0    1    5    2
  9      1     7       9    0    9    9
         2     8       8    0    6    9
         3    10       7    0    5    8
 10      1     3       0    9    7    4
         2     6       0    8    6    4
         3     7       5    0    5    4
 11      1     5       0    9   10    2
         2     6       0    6    9    1
         3    10       0    6    7    1
 12      1     1       0    7    3    7
         2     2       0    3    3    6
         3     5       6    0    2    5
 13      1     3       0   10    6    8
         2     5       7    0    5    8
         3     9       7    0    4    8
 14      1     2       0    9    4    9
         2     5       1    0    4    4
         3     6       0    7    2    2
 15      1     2       8    0   10    8
         2     6       0    3   10    6
         3     9       0    2   10    3
 16      1     1       6    0    6    4
         2     3       5    0    2    3
         3     3       0    1    5    3
 17      1     5       0    8    4    9
         2     6       3    0    3    6
         3     9       0    8    3    2
 18      1     5       0    8    3    9
         2     5       3    0    4    9
         3    10       0   10    2    5
 19      1     1       6    0    7    6
         2     5       6    0    6    5
         3     7       6    0    5    5
 20      1     1      10    0   10    9
         2     6       0    6    9    8
         3     7       0    2    8    7
 21      1     4       0    5    6   10
         2     5       0    4    6    7
         3     6       0    3    6    4
 22      1     0       0    0    0    0
************************************************************************
RESOURCEAVAILABILITIES:
  R 1  R 2  N 1  N 2
   13   13   92  106
************************************************************************
MAXIMAL LAGS:
from  to  type  delay
    1   12   ES      0
    1    2   ES      0
    2   12   ES      0
    1    3   ES      0
    3   12   ES      0
    1    4   ES      0
    4   12   ES      0
    1    5   ES      0
    5   12   ES      0
    1    6   ES      0
    6   12   ES      0
    1    7   ES      0
    7   12   ES      0
    1    8   ES      0
    8   12   ES      0
    1    9   ES      0
    9   12   ES      0
    1   10   ES      0
   10   12   ES      0
    1   11   ES      0
   11   12   ES      0
    1   12   ES      0
    2    5   SS      0
    2    5   SE     -8
    2    5   ES      6
    2    5   EE     12
    2    6   SS      5
    2    6   SE    -11
    2    6   ES      8
    2    6   EE     -1
    2   15   SS      0
    2   15   SE      5
    2   15   ES     -8
    2   15   EE    -12
    3    7   SS    -10
    3    7   SE      3
    3    7   ES      9
    3    7   EE     -1
    3    8   SS     -5
    3    8   SE      8
    3    8   ES    -12
    3    8   EE      2
    3   20   SS      7
    3   20   SE      1
    3   20   ES      1
    3   20   EE     -9
    4    7   SS      4
    4    7   SE      1
    4    7   ES      6
    4    7   EE     -2
    4   16   SS      3
    4   16   SE     -8
    4   16   ES     12
    4   16   EE     12
    5    8   SS      8
    5    8   SE     11
    5    8   ES      8
    5    8   EE     12
    5   11   SS     -3
    5   11   SE    -12
    5   11   ES     -3
    5   11   EE     -5
    5   17   SS     -3
    5   17   SE      3
    5   17   ES     -4
    5   17   EE     -9
    6   10   SS     10
    6   10   SE     -7
    6   10   ES     -2
    6   10   EE     -5
    6   13   SS    -10
    6   13   SE      9
    6   13   ES     -6
    6   13   EE      3
    6   21   SS      9
    6   21   SE      7
    6   21   ES     -2
    6   21   EE      0
    7   17   SS     -9
    7   17   SE    -12
    7   17   ES    -11
    7   17   EE      3
    8    9   SS      3
    8    9   SE      3
    8    9   ES     -6
    8    9   EE      8
    9   19   SS     -7
    9   19   SE    -10
    9   19   ES      3
    9   19   EE     -1
   10   14   SS    -11
   10   14   SE     -5
   10   14   ES      1
   10   14   EE    -10
   10   19   SS     12
   10   19   SE      6
   10   19   ES     12
   10   19   EE      9
   11   16   SS     -7
   11   16   SE    -11
   11   16   ES     -8
   11   16   EE     10
   11   21   SS     -2
   11   21   SE      7
   11   21   ES     11
   11   21   EE      6
   12   20   SS      7
   12   20   SE     11
   12   20   ES    -10
   12   20   EE      6
   13   14   SS     -6
   13   14   SE      4
   13   14   ES      3
   13   14   EE     -6
   13   16   SS     -6
   13   16   SE      2
   13   16   ES    -11
   13   16   EE     -6
   13   17   SS     -3
   13   17   SE     11
   13   17   ES     -7
   13   17   EE     -3
   14   20   SS     -3
   14   20   SE     -4
   14   20   ES      2
   14   20   EE     -3
   15   18   SS      5
   15   18   SE      7
   15   18   ES    -12
   15   18   EE     12
   15   21   SS     -4
   15   21   SE      3
   15   21   ES      1
   15   21   EE    -12
   16   18   SS      2
   16   18   SE     11
   16   18   ES      5
   16   18   EE      1
   17   18   SS     -8
   17   18   SE     12
   17   18   ES     -5
   17   18   EE     -2
   18   19   SS    -10
   18   19   SE    -12
   18   19   ES     10
   18   19   EE      3
   19   22   SS      1
   19   22   SE     -2
   19   22   ES    -10
   19   22   EE     12
   20   22   SS     12
   20   22   SE      7
   20   22   ES    -10
   20   22   EE      3
   21   22   SS      8
   21   22   SE    -11
   21   22   ES     10
   21   22   EE      5
************************************************************************
